WARNING: for repeatability, setting FPU to use double precision
============================[ Problem Statistics ]=============================
|                                                                             |
|  Number of variables:        127091                                         |
|  Number of clauses:          296682                                         |
|  Parse time:                   0.07 s                                       |
|                                                                             |
c ============================[ Search Statistics ]==============================
c | Conflicts |          ORIGINAL         |          LEARNT          | Progress |
c |           |    Vars  Clauses Literals |    Limit  Clauses Lit/Cl |          |
c ===============================================================================
We had 32371 decisions of which only 0 were on extended
We had 9482180 decisions of which only 0 were on extended
c Switched to VSIDS.
We had 13255513 decisions of which only 0.000445098 were on extended
c Switched to LRB.
We had 22806276 decisions of which only 0.000258701 were on extended
We had 25486246 decisions of which only 0.000435529 were on extended
We had 28579965 decisions of which only 0.00174598 were on extended
We had 28710329 decisions of which only 0.00175547 were on extended
We had 28795005 decisions of which only 0.0017503 were on extended
We had 28871774 decisions of which only 0.00175604 were on extended
c Switched to VSIDS.
c Switched to LRB.
We had 28974524 decisions of which only 0.00179813 were on extended
We had 29115717 decisions of which only 0.00178941 were on extended
We had 29169412 decisions of which only 0.00178612 were on extended
We had 29187527 decisions of which only 0.00178501 were on extended
We had 29269098 decisions of which only 0.00178003 were on extended
We had 29388347 decisions of which only 0.00177281 were on extended
We had 29487016 decisions of which only 0.00176688 were on extended
We had 29581011 decisions of which only 0.00176127 were on extended
We had 29617469 decisions of which only 0.0017591 were on extended
c Switched to VSIDS.
We had 29724411 decisions of which only 0.00175613 were on extended
Window full
Continue
We had 29827682 decisions of which only 0.00176346 were on extended
We had 29927769 decisions of which only 0.00176759 were on extended
c Switched to LRB.
We had 29984148 decisions of which only 0.00181096 were on extended
We had 30065966 decisions of which only 0.00180603 were on extended
We had 30145255 decisions of which only 0.00180128 were on extended
We had 30230920 decisions of which only 0.00179617 were on extended
We had 30258792 decisions of which only 0.00179452 were on extended
We had 30271772 decisions of which only 0.00179375 were on extended
We had 30284094 decisions of which only 0.00179302 were on extended
We had 30295370 decisions of which only 0.00179235 were on extended
Window full
Continue
We had 30307123 decisions of which only 0.00179166 were on extended
c Switched to VSIDS.
We had 30415537 decisions of which only 0.00178527 were on extended
We had 30509228 decisions of which only 0.00178307 were on extended
We had 30614779 decisions of which only 0.00177692 were on extended
c Switched to LRB.
We had 30669658 decisions of which only 0.00182591 were on extended
We had 30748149 decisions of which only 0.00182125 were on extended
We had 30797298 decisions of which only 0.00181834 were on extended
We had 30856256 decisions of which only 0.00181487 were on extended
We had 30915846 decisions of which only 0.00181137 were on extended
We had 30967138 decisions of which only 0.00180837 were on extended
Window full
Continue
We had 31018407 decisions of which only 0.00180538 were on extended
We had 31065197 decisions of which only 0.00180266 were on extended
We had 31115457 decisions of which only 0.00179975 were on extended
We had 31133114 decisions of which only 0.00179873 were on extended
We had 31146323 decisions of which only 0.00179797 were on extended
c Switched to VSIDS.
We had 31250226 decisions of which only 0.00180159 were on extended
We had 31331078 decisions of which only 0.00180332 were on extended
We had 31413069 decisions of which only 0.00180816 were on extended
We had 31493132 decisions of which only 0.00182262 were on extended
We had 31572283 decisions of which only 0.00182122 were on extended
Window full
Continue
We had 31625023 decisions of which only 0.00181818 were on extended
c Switched to LRB.
We had 31745843 decisions of which only 0.00188371 were on extended
We had 31792785 decisions of which only 0.00188722 were on extended
We had 31827642 decisions of which only 0.00188515 were on extended
c Switched to VSIDS.
We had 31936691 decisions of which only 0.00187872 were on extended
We had 31968579 decisions of which only 0.00187684 were on extended
We had 32039851 decisions of which only 0.00187579 were on extended
We had 32114705 decisions of which only 0.00188387 were on extended
We had 32190226 decisions of which only 0.0019012 were on extended
We had 32268980 decisions of which only 0.00191205 were on extended
Window full
Continue
We had 32345075 decisions of which only 0.0019261 were on extended
We had 32408197 decisions of which only 0.00192235 were on extended
We had 32418513 decisions of which only 0.00192174 were on extended
We had 32428747 decisions of which only 0.00192113 were on extended
We had 32439118 decisions of which only 0.00192052 were on extended
We had 32453997 decisions of which only 0.00191964 were on extended
c Switched to LRB.
We had 32518934 decisions of which only 0.00196501 were on extended
We had 32551314 decisions of which only 0.00196305 were on extended
We had 32592848 decisions of which only 0.00196055 were on extended
We had 32630629 decisions of which only 0.00195828 were on extended
Window full
Continue
We had 32667730 decisions of which only 0.00195606 were on extended
We had 32699731 decisions of which only 0.00195414 were on extended
We had 32713031 decisions of which only 0.00195335 were on extended
We had 32724695 decisions of which only 0.00195265 were on extended
We had 32737431 decisions of which only 0.00195189 were on extended
We had 32749263 decisions of which only 0.00195119 were on extended
We had 32761024 decisions of which only 0.00195049 were on extended
We had 32772693 decisions of which only 0.00194979 were on extended
We had 32783437 decisions of which only 0.00194915 were on extended
We had 32794197 decisions of which only 0.00194852 were on extended
Window full
Deactivate
We had 32804744 decisions of which only 0.00194789 were on extended
c Switched to VSIDS.
We had 32830390 decisions of which only 0.00194637 were on extended
We had 32942798 decisions of which only 0.00194883 were on extended
We had 33020592 decisions of which only 0.00195635 were on extended
We had 33099470 decisions of which only 0.00196076 were on extended
We had 33180726 decisions of which only 0.001965 were on extended
We had 33191006 decisions of which only 0.00196439 were on extended
We had 33201166 decisions of which only 0.00196379 were on extended
We had 33211302 decisions of which only 0.00196319 were on extended
We had 33221488 decisions of which only 0.00196259 were on extended
We had 33231663 decisions of which only 0.00196198 were on extended
We had 33242124 decisions of which only 0.00196137 were on extended
We had 33252555 decisions of which only 0.00196075 were on extended
We had 33262748 decisions of which only 0.00196015 were on extended
We had 33273017 decisions of which only 0.00195955 were on extended
We had 33283189 decisions of which only 0.00195895 were on extended
We had 33293536 decisions of which only 0.00195834 were on extended
We had 33303986 decisions of which only 0.00195772 were on extended
We had 33314399 decisions of which only 0.00195711 were on extended
We had 33324877 decisions of which only 0.0019565 were on extended
We had 33335243 decisions of which only 0.00195589 were on extended
We had 33345522 decisions of which only 0.00195529 were on extended
c ===============================================================================
restarts                  : 4631
conflicts                 : 1000702        (1420 /sec)
decisions                 : 33346271       (0.00 % random) (47322 /sec)
propagations              : 1783539863     (2531048 /sec)
conflict literals         : 91811023       (36.22 % deleted)

conflicts w/ DIP found    : 588689         (58.83 % of conflicts)
conflicts w/ dangerous DIP: 0              (0.00 % of conflicts)
conflicts w/ DIP-learning : 48             (0.00 % of conflicts)
decisions on ext vars     : 652            (0.00 % of decisions)
total ext vars            : 34          
tried delete ext vars     : 5           
deleted ext vars          : 5           
max ext vars              : 29          

Memory used               : 230.00 MB
CPU time                  : 704.665 s
DIP computation time      : 42.818 s (6.08 % of total time)
ER_sel time               : 1.53373 s
ER_add time               : 0.000699 s
ER_delC time              : 0 s
ER_delV time              : 0.000706 s
ER_sub time               : 1.56358 s
ER_stat time              : 0 s

UNSATISFIABLE
